134516
0,9,28,63,72,12,17,36,44,45,53,79,61,69,25,75,66,35,65,19,70,20,47,23,18,4,21,43,67,58,52,3,49,64,62,38,40,51,7,82,27,34,29,1,37,15,32,26,6,55,16,10,74,81,39,73,57,76,8,31,78,5,60,14,68,24,41,54,22,11,2,56,33,48,42,59,80,71,50,46,77,30,13,0